p edge 87 537
v 1 100
v 2 80
v 3 100
v 4 80
v 5 340
v 6 700
v 7 350
v 8 100
v 9 180
v 10 150
v 11 70
v 12 180
v 13 80
v 14 250
v 15 330
v 16 160
v 17 150
v 18 90
v 19 100
v 20 30
v 21 150
v 22 30
v 23 60
v 24 80
v 25 200
v 26 250
v 27 80
v 28 60
v 29 150
v 30 80
v 31 20
v 32 40
v 33 60
v 34 100
v 35 60
v 36 230
v 37 80
v 38 70
v 39 80
v 40 120
v 41 150
v 42 50
v 43 130
v 44 160
v 45 50
v 46 404
v 47 10
v 48 200
v 49 50
v 50 160
v 51 70
v 52 200
v 53 150
v 54 180
v 55 280
v 56 60
v 57 40
v 58 100
v 59 30
v 60 80
v 61 50
v 62 150
v 63 250
v 64 120
v 65 30
v 66 150
v 67 40
v 68 80
v 69 80
v 70 40
v 71 70
v 72 30
v 73 50
v 74 110
v 75 60
v 76 100
v 77 100
v 78 210
v 79 10
v 80 90
v 81 110
v 82 320
v 83 200
v 84 200
v 85 10
v 86 10
v 87 200
e 1 2
e 1 3
e 1 4
e 1 13
e 1 26
e 1 63
e 1 71
e 2 3
e 2 4
e 2 14
e 2 20
e 2 35
e 2 57
e 2 64
e 2 73
e 2 79
e 3 4
e 3 7
e 3 28
e 3 43
e 3 80
e 4 10
e 4 18
e 4 23
e 4 38
e 4 46
e 4 59
e 4 68
e 4 82
e 5 6
e 5 7
e 5 8
e 5 9
e 5 10
e 5 11
e 5 12
e 5 19
e 5 25
e 5 40
e 5 54
e 5 61
e 5 70
e 5 78
e 6 7
e 6 8
e 6 9
e 6 10
e 6 11
e 6 12
e 6 27
e 6 34
e 6 42
e 6 49
e 6 56
e 6 72
e 7 8
e 7 9
e 7 10
e 7 11
e 7 12
e 7 28
e 7 43
e 7 80
e 8 9
e 8 10
e 8 11
e 8 12
e 8 66
e 8 81
e 8 85
e 9 10
e 9 11
e 9 12
e 9 16
e 9 22
e 9 30
e 9 37
e 9 44
e 9 51
e 9 67
e 9 75
e 9 86
e 10 11
e 10 12
e 10 18
e 10 23
e 10 38
e 10 46
e 10 59
e 10 68
e 10 82
e 11 12
e 11 24
e 11 32
e 11 39
e 11 53
e 11 60
e 11 69
e 11 76
e 11 87
e 12 33
e 12 47
e 12 77
e 13 14
e 13 15
e 13 16
e 13 17
e 13 18
e 13 26
e 13 63
e 13 71
e 14 15
e 14 16
e 14 17
e 14 18
e 14 20
e 14 35
e 14 57
e 14 64
e 14 73
e 14 79
e 15 16
e 15 17
e 15 18
e 15 21
e 15 29
e 15 36
e 15 50
e 15 65
e 15 74
e 15 84
e 16 17
e 16 18
e 16 22
e 16 30
e 16 37
e 16 44
e 16 51
e 16 67
e 16 75
e 16 86
e 17 18
e 17 31
e 17 45
e 17 52
e 17 58
e 18 23
e 18 38
e 18 46
e 18 59
e 18 68
e 18 82
e 19 20
e 19 21
e 19 22
e 19 23
e 19 24
e 19 25
e 19 40
e 19 54
e 19 61
e 19 70
e 19 78
e 20 21
e 20 22
e 20 23
e 20 24
e 20 35
e 20 57
e 20 64
e 20 73
e 20 79
e 21 22
e 21 23
e 21 24
e 21 29
e 21 36
e 21 50
e 21 65
e 21 74
e 21 84
e 22 23
e 22 24
e 22 30
e 22 37
e 22 44
e 22 51
e 22 67
e 22 75
e 22 86
e 23 24
e 23 38
e 23 46
e 23 59
e 23 68
e 23 82
e 24 32
e 24 39
e 24 53
e 24 60
e 24 69
e 24 76
e 24 87
e 25 26
e 25 27
e 25 28
e 25 29
e 25 30
e 25 31
e 25 32
e 25 33
e 25 40
e 25 54
e 25 61
e 25 70
e 25 78
e 26 27
e 26 28
e 26 29
e 26 30
e 26 31
e 26 32
e 26 33
e 26 63
e 26 71
e 27 28
e 27 29
e 27 30
e 27 31
e 27 32
e 27 33
e 27 34
e 27 42
e 27 49
e 27 56
e 27 72
e 28 29
e 28 30
e 28 31
e 28 32
e 28 33
e 28 43
e 28 80
e 29 30
e 29 31
e 29 32
e 29 33
e 29 36
e 29 50
e 29 65
e 29 74
e 29 84
e 30 31
e 30 32
e 30 33
e 30 37
e 30 44
e 30 51
e 30 67
e 30 75
e 30 86
e 31 32
e 31 33
e 31 45
e 31 52
e 31 58
e 32 33
e 32 39
e 32 53
e 32 60
e 32 69
e 32 76
e 32 87
e 33 47
e 33 77
e 34 35
e 34 36
e 34 37
e 34 38
e 34 39
e 34 42
e 34 49
e 34 56
e 34 72
e 35 36
e 35 37
e 35 38
e 35 39
e 35 57
e 35 64
e 35 73
e 35 79
e 36 37
e 36 38
e 36 39
e 36 50
e 36 65
e 36 74
e 36 84
e 37 38
e 37 39
e 37 44
e 37 51
e 37 67
e 37 75
e 37 86
e 38 39
e 38 46
e 38 59
e 38 68
e 38 82
e 39 53
e 39 60
e 39 69
e 39 76
e 39 87
e 40 41
e 40 42
e 40 43
e 40 44
e 40 45
e 40 46
e 40 47
e 40 54
e 40 61
e 40 70
e 40 78
e 41 42
e 41 43
e 41 44
e 41 45
e 41 46
e 41 47
e 41 48
e 41 55
e 41 62
e 41 83
e 42 43
e 42 44
e 42 45
e 42 46
e 42 47
e 42 49
e 42 56
e 42 72
e 43 44
e 43 45
e 43 46
e 43 47
e 43 80
e 44 45
e 44 46
e 44 47
e 44 51
e 44 67
e 44 75
e 44 86
e 45 46
e 45 47
e 45 52
e 45 58
e 46 47
e 46 59
e 46 68
e 46 82
e 47 77
e 48 49
e 48 50
e 48 51
e 48 52
e 48 53
e 48 55
e 48 62
e 48 83
e 49 50
e 49 51
e 49 52
e 49 53
e 49 56
e 49 72
e 50 51
e 50 52
e 50 53
e 50 65
e 50 74
e 50 84
e 51 52
e 51 53
e 51 67
e 51 75
e 51 86
e 52 53
e 52 58
e 53 60
e 53 69
e 53 76
e 53 87
e 54 55
e 54 56
e 54 57
e 54 58
e 54 59
e 54 60
e 54 61
e 54 70
e 54 78
e 55 56
e 55 57
e 55 58
e 55 59
e 55 60
e 55 62
e 55 83
e 56 57
e 56 58
e 56 59
e 56 60
e 56 72
e 57 58
e 57 59
e 57 60
e 57 64
e 57 73
e 57 79
e 58 59
e 58 60
e 59 60
e 59 68
e 59 82
e 60 69
e 60 76
e 60 87
e 61 62
e 61 63
e 61 64
e 61 65
e 61 66
e 61 67
e 61 68
e 61 69
e 61 70
e 61 78
e 62 63
e 62 64
e 62 65
e 62 66
e 62 67
e 62 68
e 62 69
e 62 83
e 63 64
e 63 65
e 63 66
e 63 67
e 63 68
e 63 69
e 63 71
e 64 65
e 64 66
e 64 67
e 64 68
e 64 69
e 64 73
e 64 79
e 65 66
e 65 67
e 65 68
e 65 69
e 65 74
e 65 84
e 66 67
e 66 68
e 66 69
e 66 81
e 66 85
e 67 68
e 67 69
e 67 75
e 67 86
e 68 69
e 68 82
e 69 76
e 69 87
e 70 71
e 70 72
e 70 73
e 70 74
e 70 75
e 70 76
e 70 77
e 70 78
e 71 72
e 71 73
e 71 74
e 71 75
e 71 76
e 71 77
e 72 73
e 72 74
e 72 75
e 72 76
e 72 77
e 73 74
e 73 75
e 73 76
e 73 77
e 73 79
e 74 75
e 74 76
e 74 77
e 74 84
e 75 76
e 75 77
e 75 86
e 76 77
e 76 87
e 78 79
e 78 80
e 78 81
e 78 82
e 79 80
e 79 81
e 79 82
e 80 81
e 80 82
e 81 82
e 81 85
e 83 84
e 83 85
e 83 86
e 83 87
e 84 85
e 84 86
e 84 87
e 85 86
e 85 87
e 86 87
